
<<< setup


<<< generate

Version identifier: 12.10.0.0 | 2019-11-26 | 843d4de2ae
CPXPARAM_TimeLimit                               1200
Tried aggregator 3 times.
MIP Presolve eliminated 5132624 rows and 2896910 columns.
MIP Presolve modified 443808 coefficients.
Aggregator did 763 substitutions.
Reduced MIP has 109663 rows, 113877 columns, and 723594 nonzeros.
Reduced MIP has 113827 binaries, 0 generals, 0 SOSs, and 0 indicators.
Presolve time = 7.95 sec. (4728.73 ticks)
Found incumbent of value 11830.000000 after 12.17 sec. (6153.28 ticks)
Probing fixed 2756 vars, tightened 0 bounds.
Probing time = 54.31 sec. (10042.23 ticks)
Tried aggregator 1 time.
Detecting symmetries...
MIP Presolve eliminated 2756 rows and 2756 columns.
Reduced MIP has 106907 rows, 111121 columns, and 704925 nonzeros.
Reduced MIP has 111071 binaries, 0 generals, 0 SOSs, and 0 indicators.
Presolve time = 0.84 sec. (469.25 ticks)
Probing time = 0.34 sec. (58.00 ticks)
Clique table members: 397512.
MIP emphasis: balance optimality and feasibility.
MIP search method: dynamic search.
Parallel mode: deterministic, using up to 4 threads.
Root relaxation solution time = 3.78 sec. (2507.78 ticks)

        Nodes                                         Cuts/
   Node  Left     Objective  IInf  Best Integer    Best Bound    ItCnt     Gap

*     0+    0                        11830.0000   127333.0000           976.36%
      0     0    68738.0000   559    11830.0000    68738.0000     9859  481.05%
*     0+    0                        15423.0000    68738.0000           345.69%
      0     0    68738.0000   559    15423.0000      Cuts: 17    10102  345.69%
      0     0    68738.0000   559    15423.0000    Cuts: 9918    19578  345.69%
      0     0    68738.0000   559    15423.0000     Cuts: 747    20956  345.69%
*     0+    0                        17098.0000    68738.0000           302.02%
      0     0    68738.0000   559    17098.0000    Cuts: 9992    30132  302.02%
Heuristic still looking.
      0     2    68738.0000   205    17098.0000    68738.0000    30132  302.02%
Elapsed time = 330.94 sec. (141018.77 ticks, tree = 0.02 MB, solutions = 3)
      2     4    68738.0000   506    17098.0000    68738.0000    38809  302.02%
      4     3    68738.0000   204    17098.0000    68738.0000    30135  302.02%
      5     6    68738.0000   464    17098.0000    68738.0000    57151  302.02%
      6     7    68738.0000   403    17098.0000    68738.0000    53926  302.02%
      7     9    68738.0000   448    17098.0000    68738.0000    74996  302.02%
      8     4    68738.0000   491    17098.0000    68738.0000    41713  302.02%
      9     8    68738.0000   473    17098.0000    68738.0000    80702  302.02%
     10     5    68738.0000   419    17098.0000    68738.0000    53768  302.02%
     11    11    68738.0000   503    17098.0000    68738.0000   110499  302.02%
     12    12    68738.0000   482    17098.0000    68738.0000   115308  302.02%
Elapsed time = 451.56 sec. (182925.42 ticks, tree = 0.29 MB, solutions = 3)
     13    10    68738.0000   466    17098.0000    68738.0000   102300  302.02%
     14    13    68738.0000   452    17098.0000    68738.0000   145591  302.02%
     16    15    68738.0000   475    17098.0000    68738.0000   195923  302.02%
     18    16    68738.0000   536    17098.0000    68738.0000   203984  302.02%
     19    17    68738.0000   660    17098.0000    68738.0000   209834  302.02%
     20    18    68738.0000   519    17098.0000    68738.0000   211574  302.02%
     21    14    68738.0000   394    17098.0000    68738.0000   187758  302.02%
     22    19    68738.0000   514    17098.0000    68738.0000   211871  302.02%
     23    20    68738.0000   416    17098.0000    68738.0000   222388  302.02%
     24    16    68738.0000   397    17098.0000    68738.0000   234430  302.02%
Elapsed time = 557.56 sec. (215323.16 ticks, tree = 0.38 MB, solutions = 3)
     25    25    68738.0000   389    17098.0000    68738.0000   329938  302.02%
     26    26    68738.0000   374    17098.0000    68738.0000   330258  302.02%
     27    27    68738.0000   368    17098.0000    68738.0000   332271  302.02%
     30    26    68738.0000   627    17098.0000    68738.0000   350852  302.02%
     31    27    68738.0000   394    17098.0000    68738.0000   356517  302.02%
     33    31    68738.0000   352    17098.0000    68738.0000   394295  302.02%
     34    32    68738.0000   379    17098.0000    68738.0000   396635  302.02%
     36    34    68738.0000   331    17098.0000    68738.0000   397924  302.02%
     39    35    68738.0000   349    17098.0000    68738.0000   399455  302.02%
     42    37    68738.0000   341    17098.0000    68738.0000   401319  302.02%
Elapsed time = 632.13 sec. (241123.12 ticks, tree = 3.84 MB, solutions = 3)
     44    39    68738.0000   298    17098.0000    68738.0000   403117  302.02%
     46    28    68738.0000   407    17098.0000    68738.0000   377895  302.02%
     48    48    68738.0000   394    17098.0000    68738.0000   502688  302.02%
     50    44    infeasible          17098.0000    68738.0000   480382  302.02%
     51    34    68738.0000   426    17098.0000    68738.0000   437658  302.02%
     52    45    68738.0000   525    17098.0000    68738.0000   484573  302.02%
     53    49    68738.0000   372    17098.0000    68738.0000   526908  302.02%
     54    52    68738.0000   495    17098.0000    68738.0000   537745  302.02%
     55    51    infeasible          17098.0000    68738.0000   543034  302.02%
     56    52    infeasible          17098.0000    68738.0000   568621  302.02%
Elapsed time = 913.30 sec. (292946.58 ticks, tree = 3.31 MB, solutions = 3)
     57    35    68738.0000   367    17098.0000    68738.0000   489764  302.02%
     58    54    68738.0000   363    17098.0000    68738.0000   589281  302.02%
     59    51    68738.0000   434    17098.0000    68738.0000   570374  302.02%
     60    56    68738.0000   470    17098.0000    68738.0000   626778  302.02%
     62    59    68738.0000   364    17098.0000    68738.0000   674523  302.02%
     63    60    68738.0000   371    17098.0000    68738.0000   675943  302.02%
     65    62    68738.0000   382    17098.0000    68738.0000   677486  302.02%
     67    64    68738.0000   361    17098.0000    68738.0000   679388  302.02%
     68    65    68738.0000   324    17098.0000    68738.0000   680499  302.02%
     70    67    68738.0000   336    17098.0000    68738.0000   682043  302.02%
Elapsed time = 1200.14 sec. (338431.87 ticks, tree = 5.50 MB, solutions = 3)
     73    70    68738.0000   380    17098.0000    68738.0000   683673  302.02%
     74    71    68738.0000   336    17098.0000    68738.0000   684402  302.02%
     78    73    68738.0000   340    17098.0000    68738.0000   685521  302.02%
     80    75    68738.0000   292    17098.0000    68738.0000   687293  302.02%
     83    76    68738.0000   268    17098.0000    68738.0000   689382  302.02%
     89    76    68738.0000   311    17098.0000    68738.0000   692239  302.02%
     91    76    68738.0000   336    17098.0000    68738.0000   693712  302.02%

Implied bound cuts applied:  1050
Flow cuts applied:  563
Mixed integer rounding cuts applied:  3880
Zero-half cuts applied:  1
Gomory fractional cuts applied:  2

Root node processing (before b&c):
  Real time             =  324.48 sec. (139146.91 ticks)
Parallel b&c, 4 threads:
  Real time             =  876.17 sec. (235011.70 ticks)
  Sync time (average)   =  163.27 sec.
  Wait time (average)   =    0.00 sec.
                          ------------
Total (root+branch&cut) = 1200.66 sec. (374158.61 ticks)

<<< solve


OBJECTIVE: 17098

<<< post process


<<< done

